
Gurobi 11.0.3 (linux64) logging started Mon Aug 25 16:17:04 2025

Set parameter LogFile to value "/home/yihong/Coding/OR_SUC/SUC_epstheta_results_bigM100000_thread4/case24_ieee_rts_theta0.001_epsilon0.2_gurobi_seed150000_num_gen100_N_WDR50_load_scaling_factor1_proposed_eps_T2quadra_cost_bc1.03.txt"
Set parameter TimeLimit to value 3600
Gurobi Optimizer version 11.0.3 build v11.0.3rc0 (linux64 - "Ubuntu 20.04.6 LTS")

CPU model: AMD EPYC 7532 32-Core Processor, instruction set [SSE2|AVX|AVX2]
Thread count: 64 physical cores, 128 logical processors, using up to 4 threads

Academic license 2399124 - for non-commercial use only - registered to yi___@ed.ac.uk
Optimize a model with 5070 rows, 2531 columns and 192230 nonzeros
Model fingerprint: 0x7536af78
Model has 200 quadratic constraints
Variable types: 2331 continuous, 200 integer (200 binary)
Coefficient statistics:
  Matrix range     [3e-04, 2e+03]
  QMatrix range    [2e-03, 8e-03]
  QLMatrix range   [1e-01, 6e+01]
  Objective range  [1e+00, 1e+00]
  Bounds range     [1e+00, 1e+00]
  RHS range        [5e-02, 9e+03]
Presolve removed 4431 rows and 1257 columns
Presolve time: 0.04s
Presolved: 639 rows, 1274 columns, 6493 nonzeros
Presolved model has 200 quadratic constraint(s)
Variable types: 1074 continuous, 200 integer (200 binary)

Root relaxation: objective 1.755033e+03, 459 iterations, 0.00 seconds (0.00 work units)

    Nodes    |    Current Node    |     Objective Bounds      |     Work
 Expl Unexpl |  Obj  Depth IntInf | Incumbent    BestBd   Gap | It/Node Time

     0     0 1755.03310    0    4          - 1755.03310      -     -    0s
     0     0 15235.1298    0   78          - 15235.1298      -     -    0s
     0     0 47991.3307    0   30          - 47991.3307      -     -    0s
     0     0 47994.0006    0   32          - 47994.0006      -     -    0s
     0     0 48023.3567    0    8          - 48023.3567      -     -    0s
     0     0 48023.5357    0    8          - 48023.5357      -     -    0s
     0     0 48023.5357    0    8          - 48023.5357      -     -    0s
     0     2 48023.5400    0    8          - 48023.5400      -     -    0s
H   34    38                    48029.980302 48026.4080  0.01%   6.7    0s
*   34    38               9    48029.980302 48026.4080  0.01%   6.9    0s

Cutting planes:
  Gomory: 12
  Implied bound: 51
  MIR: 24
  Flow cover: 87

Explored 39 nodes (1699 simplex iterations) in 0.30 seconds (0.26 work units)
Thread count was 4 (of 128 available processors)

Solution count 2: 48030 48030 

Optimal solution found (tolerance 1.00e-03)
Warning: max constraint violation (1.3393e-07) exceeds tolerance
Best objective 4.802998030193e+04, best bound 4.802640800498e+04, gap 0.0074%

Gurobi 11.0.3 (linux64) logging started Mon Aug 25 16:17:05 2025

Set parameter LogFile to value "/home/yihong/Coding/OR_SUC/SUC_epstheta_results_bigM100000_thread4/case24_ieee_rts_theta0.001_epsilon0.2_gurobi_seed150000_num_gen100_N_WDR50_load_scaling_factor1_proposed_eps_T2quadra_cost_bc1.03.txt"
Set parameter TimeLimit to value 3600
Gurobi Optimizer version 11.0.3 build v11.0.3rc0 (linux64 - "Ubuntu 20.04.6 LTS")

CPU model: AMD EPYC 7532 32-Core Processor, instruction set [SSE2|AVX|AVX2]
Thread count: 64 physical cores, 128 logical processors, using up to 4 threads

Academic license 2399124 - for non-commercial use only - registered to yi___@ed.ac.uk
Optimize a model with 5070 rows, 2532 columns and 192799 nonzeros
Model fingerprint: 0xb01d908c
Model has 201 quadratic constraints
Variable types: 2332 continuous, 200 integer (200 binary)
Coefficient statistics:
  Matrix range     [3e-04, 2e+03]
  QMatrix range    [2e-03, 5e+01]
  QLMatrix range   [1e-01, 6e+01]
  Objective range  [1e+00, 1e+00]
  Bounds range     [2e-01, 1e+00]
  RHS range        [1e+00, 5e+04]
  QRHS range       [5e-02, 5e-02]
Presolve removed 4214 rows and 1153 columns
Presolve time: 0.04s
Presolved: 1058 rows, 1579 columns, 8364 nonzeros
Presolved model has 200 quadratic constraint(s)
Presolved model has 1 bilinear constraint(s)

Solving non-convex MIQCP

Variable types: 1373 continuous, 206 integer (206 binary)

Root relaxation: objective 1.396770e-05, 1247 iterations, 0.02 seconds (0.03 work units)

    Nodes    |    Current Node    |     Objective Bounds      |     Work
 Expl Unexpl |  Obj  Depth IntInf | Incumbent    BestBd   Gap | It/Node Time

     0     0    0.00001    0    4          -    0.00001      -     -    0s
     0     0    0.00001    0    1          -    0.00001      -     -    0s
H    0     0                       0.0003787    0.00001  96.3%     -    0s
     0     0    0.00001    0    7    0.00038    0.00001  96.2%     -    0s
H    0     0                       0.0003108    0.00001  95.4%     -    0s
     0     0    0.00012    0    3    0.00031    0.00012  60.1%     -    0s
H    0     0                       0.0001846    0.00014  24.5%     -    0s
     0     0    0.00018    0    3    0.00018    0.00018  2.97%     -    0s
H    0     0                       0.0001838    0.00018  2.53%     -    0s
H    0     0                       0.0001834    0.00018  2.32%     -    0s
H    0     0                       0.0001832    0.00018  2.21%     -    0s
H    0     0                       0.0001831    0.00018  2.16%     -    0s
     0     0    0.00018    0    3    0.00018    0.00018  1.99%     -    0s
     0     0    0.00018    0    3    0.00018    0.00018  1.84%     -    0s
     0     0    0.00018    0    3    0.00018    0.00018  1.84%     -    0s
     0     0    0.00018    0    3    0.00018    0.00018  1.84%     -    0s
     0     0    0.00018    0    3    0.00018    0.00018  1.84%     -    0s
H    0     0                       0.0001816    0.00018  1.06%     -    0s
H    0     0                       0.0001816    0.00018  1.06%     -    0s
     0     2    0.00018    0    3    0.00018    0.00018  1.06%     -    0s
H   31     6                       0.0001816    0.00018  0.50%   8.4    0s
*   51     0              11       0.0001814    0.00018  0.00%   7.1    0s

Cutting planes:
  Implied bound: 11
  MIR: 3
  Flow cover: 5
  Relax-and-lift: 1

Explored 53 nodes (2222 simplex iterations) in 0.53 seconds (0.45 work units)
Thread count was 4 (of 128 available processors)

Solution count 10: 0.000181357 0.000181642 0.000181643 ... 0.000310844

Optimal solution found (tolerance 1.00e-03)
Best objective 1.813566490900e-04, best bound 1.813566490900e-04, gap 0.0000%
